8
11
10
0
13
11
47
10
20
36
18
12
71
0
14
61
6
10
0
10
0
7
0
10
48
84
7
0
0
12
0
37
0
27
7
0
51
6
21
0
6
0
11
12
13
14
29
0
0
7
0
18
12
19
38
32
0
19
6
13
7
0
28
0
21
24
0
0
6
28
41
5
28
14
78
5
17
30
8
6
12
0
13
15
0
7
6
7
0
0
0
15
0
0
38
11
0
19
21
24
